6000
6519
7949
9979
2370
1057
400
9528
10189
3251
9622
8436
6672
7563
8339
2427
8846
4273
960
9274
9416
8391
821
1439
5535
7633
6203
449
5759
1933
6543
3605
978
6853
3041
1834
8858
4304
4888
5769
5222
1865
9402
2815
1330
7265
4421
3285
3170
1211
